RT is False
Default write of storage_offers_DA.csv just to have a file (but constraint should be inactive)
Reading model...
...model read.
creating competitive generators file...
...competitive generators recorded.
Loading data...
.. day-ahead data with real-time VRE data read.
Compiling instance...
...instance created.
Creating Offer Mitigation (model will solve as dispatch if TRUE)...
NOTE: storage offers will not be mitigated
...storage offer mitigation file created
Converting model to MPEC...
...converted
NOTE: initial MIP solve with only storage competitive to get feasible solution
Solving...

Welcome to IBM(R) ILOG(R) CPLEX(R) Interactive Optimizer 12.9.0.0
  with Simplex, Mixed Integer & Barrier Optimizers
5725-A06 5725-A29 5724-Y48 5724-Y49 5724-Y54 5724-Y55 5655-Y21
Copyright IBM Corp. 1988, 2019.  All Rights Reserved.

Type 'help' for a list of available commands.
Type 'help' followed by a command name for more
information on commands.

CPLEX> Logfile 'cplex.log' closed.
Logfile 'C:\Users\llavin\Desktop\test826\logs\tmpedpvy1lh.cplex.log' open.
CPLEX> New value for parallel optimization mode: -1
CPLEX> New value for emphasis for MIP optimization: 1
CPLEX> New value for mixed integer optimality gap tolerance: 0.01
CPLEX> New value for integrality tolerance: 1e-12
CPLEX> New value for deterministic time limit in ticks: 75000
CPLEX> Problem 'C:\Users\llavin\Desktop\test826\logs\tmpdpele3w3.pyomo.lp' read.
Read time = 0.23 sec. (13.92 ticks)
CPLEX> Problem name         : C:\Users\llavin\Desktop\test826\logs\tmpdpele3w3.pyomo.lp
Objective sense      : Maximize
Variables            :   53809  [Nneg: 1,  Box: 22004,  Free: 4464,
                                 Binary: 27340]
Objective nonzeros   :    8979
Linear constraints   :  123253  [Less: 41346,  Greater: 59096,  Equal: 22811]
  Nonzeros           :  293288
  RHS nonzeros       :   67490

Variables            : Min LB: -5000.000        Max UB: 1000000.       
Objective nonzeros   : Min   : 0.4083333        Max   : 722.0000       
Linear constraints   :
  Nonzeros           : Min   : 0.4083333        Max   : 1000000.       
  RHS nonzeros       : Min   : 0.4083333        Max   : 1000000.       
CPLEX> CPXPARAM_Parallel                                -1
CPXPARAM_Emphasis_MIP                            1
CPXPARAM_DetTimeLimit                            75000
CPXPARAM_MIP_Tolerances_MIPGap                   0.01
CPXPARAM_MIP_Tolerances_Integrality              9.9999999999999998e-13
Tried aggregator 4 times.
MIP Presolve eliminated 88780 rows and 19036 columns.
MIP Presolve added 3393 rows and 0 columns.
MIP Presolve modified 24846 coefficients.
Aggregator did 12975 substitutions.
Reduced MIP has 24891 rows, 21242 columns, and 71024 nonzeros.
Reduced MIP has 8381 binaries, 0 generals, 0 SOSs, and 0 indicators.
Presolve time = 0.34 sec. (196.28 ticks)
Probing fixed 381 vars, tightened 5570 bounds.
Probing time = 0.06 sec. (19.30 ticks)
Tried aggregator 2 times.
MIP Presolve eliminated 859 rows and 763 columns.
MIP Presolve modified 3035 coefficients.
Aggregator did 34 substitutions.
Reduced MIP has 23998 rows, 20445 columns, and 68436 nonzeros.
Reduced MIP has 8000 binaries, 0 generals, 0 SOSs, and 0 indicators.
Presolve time = 0.11 sec. (89.10 ticks)
Probing fixed 0 vars, tightened 325 bounds.
Probing time = 0.16 sec. (23.60 ticks)
Clique table members: 43266.
MIP emphasis: integer feasibility.
MIP search method: dynamic search.
Parallel mode: opportunistic, using up to 32 threads.
Root relaxation solution time = 0.50 sec. (774.48 ticks)

        Nodes                                         Cuts/
   Node  Left     Objective  IInf  Best Integer    Best Bound    ItCnt     Gap

      0     0      143.4162   218                    143.4162     6472         
      0     0      143.2891    17                    Cuts: 31     6485         
      0     0      143.2891    17                     Cuts: 2     6487         
      0     0      141.2241    12                     Cuts: 2     6491         
      0    36       84.8083     2                     Cuts: 4     6658         
Elapsed time = 4.06 sec. (1995.15 ticks, tree = 0.02 MB, solutions = 0)
*   400+  288                         -456.1982      130.9795           128.71%
*   535+  236                           71.0403      130.9795            84.37%
    856   117       99.3108     2       87.9048      130.9795    13612   49.00%
*  1424   208      integral     0       91.0283      115.0516    14412   26.39%
   1441   235      102.3089     2       91.0283      115.0516    14481   26.39%
   1974   221       98.7375     1       91.0283      111.6145    15701   22.62%
   2511   138      104.8251     1       93.5863      109.6763    17340   17.19%
   3052    80        cutoff             93.5863      106.0867    17774   13.36%
   3350    36        cutoff             93.5863      106.0867    18521   13.36%

Cover cuts applied:  6
Implied bound cuts applied:  1
Flow cuts applied:  14
Lift and project cuts applied:  1
Gomory fractional cuts applied:  3

Root node processing (before b&c):
  Real time             =    2.70 sec. (1976.31 ticks)
Parallel b&c, 32 threads:
  Real time             =    9.08 sec. (1770.63 ticks)
  Sync time (average)   =    2.05 sec.
  Wait time (average)   =    0.00 sec.
                          ------------
Total (root+branch&cut) =   11.78 sec. (3746.93 ticks)

Solution pool: 10 solutions saved.

MIP - Integer optimal, tolerance (0.01/1e-06):  Objective =  9.3586335451e+01
Current MIP best bound =  9.4296282196e+01 (gap = 0.709947, 0.76%)
Solution time =   11.80 sec.  Iterations = 19119  Nodes = 3382 (1)
Deterministic time = 3747.09 ticks  (317.63 ticks/sec)

CPLEX> Incumbent solution written to file 'C:\Users\llavin\Desktop\test826\logs\tmpvsh42a5i.cplex.sol'.
CPLEX> NOTE: no warmstart specified for MIP iteration, default behavior is true
NOTE: resolving with all competitive generators using storage-only solution to warmstart
Solving...

Welcome to IBM(R) ILOG(R) CPLEX(R) Interactive Optimizer 12.9.0.0
  with Simplex, Mixed Integer & Barrier Optimizers
5725-A06 5725-A29 5724-Y48 5724-Y49 5724-Y54 5724-Y55 5655-Y21
Copyright IBM Corp. 1988, 2019.  All Rights Reserved.

Type 'help' for a list of available commands.
Type 'help' followed by a command name for more
information on commands.

CPLEX> Logfile 'cplex.log' closed.
Logfile 'C:\Users\llavin\Desktop\test826\logs\tmpqu3v722d.cplex.log' open.
CPLEX> New value for parallel optimization mode: -1
CPLEX> New value for emphasis for MIP optimization: 1
CPLEX> New value for mixed integer optimality gap tolerance: 0.01
CPLEX> New value for integrality tolerance: 1e-12
CPLEX> New value for deterministic time limit in ticks: 75000
CPLEX> Problem 'C:\Users\llavin\Desktop\test826\logs\tmpizjohvqo.pyomo.lp' read.
Read time = 0.22 sec. (13.94 ticks)
CPLEX> MIP start file 'C:\Users\llavin\Desktop\test826\logs\tmp44_f7yki.cplex.mst' read.
CPLEX> Problem name         : C:\Users\llavin\Desktop\test826\logs\tmpizjohvqo.pyomo.lp
Objective sense      : Maximize
Variables            :   54529  [Nneg: 1,  Box: 22724,  Free: 4464,
                                 Binary: 27340]
Objective nonzeros   :    9675
Linear constraints   :  123253  [Less: 41346,  Greater: 59096,  Equal: 22811]
  Nonzeros           :  293288
  RHS nonzeros       :   67490

Variables            : Min LB: -5000.000        Max UB: 1000000.       
Objective nonzeros   : Min   : 0.4083333        Max   : 722.0000       
Linear constraints   :
  Nonzeros           : Min   : 0.4083333        Max   : 1000000.       
  RHS nonzeros       : Min   : 0.4083333        Max   : 1000000.       
CPLEX> CPXPARAM_Parallel                                -1
CPXPARAM_Emphasis_MIP                            1
CPXPARAM_DetTimeLimit                            75000
CPXPARAM_MIP_Tolerances_MIPGap                   0.01
CPXPARAM_MIP_Tolerances_Integrality              9.9999999999999998e-13
Warning:  No solution found from 1 MIP starts.
Retaining values of one MIP start for possible repair.
Tried aggregator 4 times.
MIP Presolve eliminated 88780 rows and 19756 columns.
MIP Presolve added 3393 rows and 0 columns.
MIP Presolve modified 24846 coefficients.
Aggregator did 12975 substitutions.
Reduced MIP has 24891 rows, 21242 columns, and 71024 nonzeros.
Reduced MIP has 8381 binaries, 0 generals, 0 SOSs, and 0 indicators.
Presolve time = 0.34 sec. (196.70 ticks)
Probing fixed 381 vars, tightened 5570 bounds.
Probing time = 0.06 sec. (19.30 ticks)
Tried aggregator 2 times.
MIP Presolve eliminated 859 rows and 763 columns.
MIP Presolve modified 3035 coefficients.
Aggregator did 34 substitutions.
Reduced MIP has 23998 rows, 20445 columns, and 68436 nonzeros.
Reduced MIP has 8000 binaries, 0 generals, 0 SOSs, and 0 indicators.
Presolve time = 0.11 sec. (89.10 ticks)
Probing fixed 0 vars, tightened 325 bounds.
Probing time = 0.14 sec. (23.60 ticks)
Clique table members: 43266.
MIP emphasis: integer feasibility.
MIP search method: dynamic search.
Parallel mode: opportunistic, using up to 32 threads.
Root relaxation solution time = 0.51 sec. (770.27 ticks)

        Nodes                                         Cuts/
   Node  Left     Objective  IInf  Best Integer    Best Bound    ItCnt     Gap

      0     0    41021.7302   274                  41021.7302     6610         
      0     0    41020.9383    34                    Cuts: 61     6642         
      0     0    41010.9762    33                     Cuts: 9     6648         
      0     0    41007.9480    33                     Cuts: 3     6654         
Repair heuristic found nothing.
      0    17    28979.8066    38                     Cuts: 5     6839         
Elapsed time = 4.78 sec. (2158.14 ticks, tree = 0.02 MB, solutions = 0)
*   871   203      integral     0    40606.7996    41002.8694     8040    0.98%
*   892   192      integral     0    40658.0269    41002.8694     8001    0.85%
    922   200    28443.9244    30    40658.0269    41002.8694     8023    0.85%
*   938   226      integral     0    40681.1836    41002.8694     8183    0.79%

Clique cuts applied:  1
Cover cuts applied:  5
Implied bound cuts applied:  3
Flow cuts applied:  33
Mixed integer rounding cuts applied:  8
Gomory fractional cuts applied:  4

Root node processing (before b&c):
  Real time             =    3.05 sec. (2118.19 ticks)
Parallel b&c, 32 threads:
  Real time             =    2.98 sec. (382.66 ticks)
  Sync time (average)   =    0.72 sec.
  Wait time (average)   =    0.00 sec.
                          ------------
Total (root+branch&cut) =    6.03 sec. (2500.84 ticks)

Solution pool: 3 solutions saved.

MIP - Integer optimal, tolerance (0.01/1e-06):  Objective =  4.0681183631e+04
Current MIP best bound =  4.1002869436e+04 (gap = 321.686, 0.79%)
Solution time =    6.06 sec.  Iterations = 12590  Nodes = 1045 (256)
Deterministic time = 2501.00 ticks  (412.57 ticks/sec)

CPLEX> Incumbent solution written to file 'C:\Users\llavin\Desktop\test826\logs\tmp5m50ujsq.cplex.sol'.
CPLEX> Exporting results... 
